row=9;
column=9;
Board=[|0,0,0,0,4,0,0,0,0|0,0,0,0,0,0,0,0,0|0,0,0,0,0,0,0,0,0|0,0,0,0,0,0,0,0,0|0,0,0,0,0,0,0,6,0|0,0,0,0,1,0,0,0,0|0,0,0,0,0,0,0,0,0|0,0,0,0,0,0,0,0,0|0,0,0,0,0,0,0,0,0|];
right = [6,0,3,2,3,1,1,1,3];
bottom = [0,1,1,2,3,1,4,3,5];
